# 2d Lennard-Jones gas
units           lj
dimension       2
boundary        p p p
atom_style      atomic

# Square unit cells with a single atom in each cell,
#
#     ---- 
#   |      |
#   |      |
#   |      | 
#   o ----
# 
# with all z-components set to 0.05 to avoid the periodic boundary at z=0.
lattice         sq 2.0
region          simbox block 0 10 0 10 0.0 0.1
create_box      1 simbox
create_atoms    1 box
set             type 1 z 0.05

# All masses are set to 1.0, temperature initialized at 2.5 (Lennard-Jones units)
mass            1 1.0
velocity        all create 2.5 11111

# Lennard-Jones interaction with sigma=epsilon=1 and cutoff at 4sigma.
# The potential energy is shifted to avoid the discontinuity at the cutoff.
pair_style      lj/cut 4.0
pair_modify     tail no shift yes
pair_coeff      1 1 1.0 1.0 4.0

# Neighbor list is repopulated every single time step, we want to avoid the 
# list having any impact on the simulation.
neighbor        0.3 bin
neigh_modify    every 1 delay 0 check no

# Variables to dump to file.
compute         keatom  all ke/atom
compute         peatom  all pe/atom
compute         ke      all reduce sum c_keatom
compute         pe      all reduce sum c_peatom
variable        ketot equal ke
variable        petot equal pe
variable        tstep equal step

timestep        0.001
fix             1 all print 1 "${tstep} ${ketot} ${petot}" file lammps.energy screen "no" title "#"
fix             2 all nve

dump            1 all custom 1 lammps.dump id type mass x y z vx vy vz fx fy fz c_keatom c_peatom 
dump_modify     1 format line "%3d %3d %20.15f %20.15f %20.15f %20.15f %20.15f %20.15f %20.15f %20.15f %20.15f %20.15f %20.15f %20.15f"
run             10